2 74 1 5 30 72 68 69 33 36 4 7 56 34 44 84 16 19 70 80 9 47 43 8 77 
63 93 64 6 32 75 31 35 55 39 98 89 3 59 23 40 50 83 76 71 51 79 42 41 21 96 
29 27 66 61 20 100 92 65 95 91 60 26 46 18 15 73 52 81 10 90 87 
67 62 22 24 97 94 99 49 38 53 28 54 58 86 82 88 57 85 12 13 17 25 11 78 48 
37 14 45 

